p cnf 9 37 
c Factors encoded in variables 1-4 and 5-8
c Target number: 169
c Factors: 13 x 13
3 -2 -10 -10 0
-3 -10 -10 0
7 6 10 -10 0
6 -10 10 0
-3 -7 -10 0
-3 -2 -6 10 -10 0
-3 2 7 -10 -10 0
3 7 -10 0
7 -6 10 10 10 0
-2 -6 10 -10 0
3 -7 10 0
1 0
2 -6 10 0
-2 -7 -6 -10 0
-2 6 -10 10 0
3 10 10 0
-3 -2 0
-3 7 10 0
7 -6 -10 10 -10 0
-6 -10 -10 0
5 0
-3 10 -10 0
3 2 0
7 10 -10 10 10 0
-7 -6 10 -10 -10 0
8 0
-3 -7 10 -10 10 -10 0
2 7 10 0
-3 -2 7 6 10 0
-2 10 10 -10 0
3 -2 -6 10 -10 0
-10 -10 0
-7 6 10 -10 0
4 0
-2 6 10 0
2 6 -10 0
-2 -7 -6 10 0
